c Result of efficient AIG-to-CNF conversion using package CNF
p cnf 174 369
2 -129 -165 173 0
2 -129 -147 173 0
2 -147 -165 173 0
-2 129 165 0
-2 147 165 0
-2 -173 0
-2 129 147 0
3 59 -113 0
3 -59 -114 -119 0
-3 -59 119 0
-3 59 113 0
-3 -59 114 0
4 -114 -115 0
4 -114 -117 0
4 60 -114 0
4 -60 -115 -117 0
-4 60 114 0
-4 -60 115 117 0
-4 114 117 0
-4 114 115 0
5 61 -115 0
5 -61 -116 129 0
-5 -61 116 0
-5 61 115 0
-5 -61 -129 0
6 -163 -167 0
6 -116 167 0
-6 116 167 0
-6 163 -167 0
7 63 -117 0
7 -63 -118 130 0
-7 -63 118 0
-7 63 117 0
-7 -63 -130 0
8 -118 -123 0
8 -118 -130 0
8 64 -118 0
8 -64 -123 -130 0
-8 64 118 0
-8 -64 123 130 0
-8 118 130 0
-8 118 123 0
9 65 -119 0
9 -65 124 -128 0
-9 -65 -124 0
-9 65 119 0
-9 -65 128 0
10 66 -120 0
10 -66 129 0
-10 -66 -129 0
-10 66 120 0
11 -121 168 0
11 -120 -168 0
-11 121 168 0
-11 120 -168 0
12 68 -122 0
12 -68 113 -121 0
-12 -68 -113 0
-12 68 122 0
-12 -68 121 0
13 -69 -115 0
13 69 -123 0
13 -69 -122 0
-13 69 123 0
-13 -69 115 122 0
14 -122 -124 0
14 -117 -124 0
14 70 -124 0
14 -70 -117 -122 0
-14 70 124 0
-14 -70 117 122 0
-14 117 124 0
-14 122 124 0
15 71 -125 0
15 -71 118 -123 0
-15 -71 -118 0
-15 71 125 0
-15 -71 123 0
16 72 -126 0
16 -72 -125 128 0
-16 72 126 0
-16 -72 125 0
-16 -72 -128 0
17 73 -127 0
17 -73 -119 -125 0
-17 -73 119 0
-17 73 127 0
-17 -73 125 0
-18 74 128 0
-18 -74 114 119 0
18 -74 -114 0
18 74 -128 0
18 -74 -119 0
19 75 -129 0
19 -75 -124 128 0
-19 -75 -128 0
-19 75 129 0
-19 -75 124 0
20 -76 -126 0
20 76 -130 0
20 -76 -131 0
-20 76 130 0
-20 -76 126 131 0
21 77 -131 0
21 -77 -132 137 0
-21 -77 132 0
-21 77 131 0
-21 -77 -137 0
22 -132 -133 0
22 -132 -135 0
22 78 -132 0
22 -78 -133 -135 0
-22 78 132 0
-22 -78 133 135 0
-22 132 135 0
-22 132 133 0
23 79 -133 0
23 -79 -134 147 0
-23 -79 134 0
-23 79 133 0
-23 -79 -147 0
24 -134 169 0
24 -127 -169 0
-24 134 169 0
-24 127 -169 0
25 81 -135 0
25 -81 -136 148 0
-25 -81 136 0
-25 81 135 0
-25 -81 -148 0
26 -136 -141 0
26 -136 -148 0
26 82 -136 0
26 -82 -141 -148 0
-26 82 136 0
-26 -82 141 148 0
-26 136 148 0
-26 136 141 0
-27 83 137 0
-27 -83 142 146 0
27 83 -137 0
27 -83 -146 0
27 -83 -142 0
28 84 -138 0
28 -84 147 0
-28 -84 -147 0
-28 84 138 0
29 -139 170 0
29 -138 -170 0
-29 139 170 0
-29 138 -170 0
30 86 -140 0
30 -86 131 -139 0
-30 -86 -131 0
-30 86 140 0
-30 -86 139 0
31 -87 -133 0
31 87 -141 0
31 -87 -140 0
-31 87 141 0
-31 -87 133 140 0
32 -140 -142 0
32 -135 -142 0
32 88 -142 0
32 -88 -135 -140 0
-32 88 142 0
-32 -88 135 140 0
-32 135 142 0
-32 140 142 0
33 89 -143 0
33 -89 136 -141 0
-33 -89 -136 0
-33 89 143 0
-33 -89 141 0
34 90 -144 0
34 -90 -143 -146 0
-34 -90 146 0
-34 90 144 0
-34 -90 143 0
35 91 -145 0
35 -91 137 -143 0
-35 -91 -137 0
-35 91 145 0
-35 -91 143 0
36 92 -146 0
36 -92 132 -137 0
-36 -92 -132 0
-36 92 146 0
-36 -92 137 0
37 93 -147 0
37 -93 -142 -146 0
-37 -93 142 0
-37 93 147 0
-37 -93 146 0
38 -94 -144 0
38 94 -148 0
38 -94 -149 0
-38 94 148 0
-38 -94 144 149 0
39 95 -149 0
39 -95 -150 155 0
-39 -95 150 0
-39 95 149 0
-39 -95 -155 0
40 -150 -151 0
40 -150 -153 0
40 96 -150 0
40 -96 -151 -153 0
-40 96 150 0
-40 -96 151 153 0
-40 150 153 0
-40 150 151 0
41 97 -151 0
41 -97 -152 165 0
-41 -97 152 0
-41 97 151 0
-41 -97 -165 0
42 -152 171 0
42 -145 -171 0
-42 152 171 0
-42 145 -171 0
43 99 -153 0
43 -99 -154 166 0
-43 -99 154 0
-43 99 153 0
-43 -99 -166 0
44 -154 -159 0
44 -154 -166 0
44 100 -154 0
44 -100 -159 -166 0
-44 100 154 0
-44 -100 159 166 0
-44 154 166 0
-44 154 159 0
-45 101 155 0
-45 -101 160 164 0
45 101 -155 0
45 -101 -164 0
45 -101 -160 0
46 102 -156 0
46 -102 165 0
-46 -102 -165 0
-46 102 156 0
47 -157 172 0
47 -156 -172 0
-47 157 172 0
-47 156 -172 0
48 104 -158 0
48 -104 149 -157 0
-48 -104 -149 0
-48 104 158 0
-48 -104 157 0
49 -105 -151 0
49 105 -159 0
49 -105 -158 0
-49 105 159 0
-49 -105 151 158 0
50 -158 -160 0
50 -153 -160 0
50 106 -160 0
50 -106 -153 -158 0
-50 106 160 0
-50 -106 153 158 0
-50 153 160 0
-50 158 160 0
51 107 -161 0
51 -107 154 -159 0
-51 -107 -154 0
-51 107 161 0
-51 -107 159 0
52 108 -162 0
52 -108 -161 -164 0
-52 -108 164 0
-52 108 162 0
-52 -108 161 0
53 109 -163 0
53 -109 155 -161 0
-53 -109 -155 0
-53 109 163 0
-53 -109 161 0
54 110 -164 0
54 -110 150 -155 0
-54 -110 -150 0
-54 110 164 0
-54 -110 155 0
55 111 -165 0
55 -111 -160 -164 0
-55 -111 160 0
-55 111 165 0
-55 -111 164 0
56 -112 -113 0
56 112 -166 0
56 -112 -162 0
-56 112 166 0
-56 -112 113 162 0
-57 173 42 58 0
-57 173 47 58 0
57 -173 0
57 -58 0
57 -42 -47 0
-58 11 24 0
-58 6 29 0
-58 11 29 0
-58 6 24 0
58 -6 -11 0
58 -24 -29 0
-174 0
2 0
3 0
4 0
5 0
6 0
7 0
8 0
9 0
10 0
11 0
12 0
13 0
14 0
15 0
16 0
17 0
18 0
19 0
20 0
21 0
22 0
23 0
24 0
25 0
26 0
27 0
28 0
29 0
30 0
31 0
32 0
33 0
34 0
35 0
36 0
37 0
38 0
39 0
40 0
41 0
42 0
43 0
44 0
45 0
46 0
47 0
48 0
49 0
50 0
51 0
52 0
53 0
54 0
55 0
56 0
62 0
67 0
80 0
85 0
98 0
103 0
57 0

